(set-info :smt-lib-version 2.6)
(set-logic QF_LIA)
(set-info :category "industrial")
(set-info :status sat)
(declare-fun x0 () Int)
(declare-fun x1 () Int)
(declare-fun x10 () Int)
(declare-fun x11 () Int)
(declare-fun x12 () Int)
(declare-fun x13 () Int)
(declare-fun x14 () Int)
(declare-fun x15 () Int)
(declare-fun x16 () Int)
(declare-fun x17 () Int)
(declare-fun x18 () Int)
(declare-fun x19 () Int)
(declare-fun x2 () Int)
(declare-fun x3 () Int)
(declare-fun x4 () Int)
(declare-fun x5 () Int)
(declare-fun x6 () Int)
(declare-fun x7 () Int)
(declare-fun x8 () Int)
(declare-fun x9 () Int)
(assert (let ((?v_15 (* 0 x1)) (?v_16 (* 0 x11)) (?v_2 (* 0 x16)) (?v_11 (* 1 x17)) (?v_7 (* 1 x2)) (?v_8 (* 0 x3)) (?v_37 (* 0 x6)) (?v_50 (* 1 x18)) (?v_18 (* 1 x8)) (?v_25 (* 0 x0)) (?v_21 (* 1 x1)) (?v_1 (* 0 x10)) (?v_3 (* 0 x17)) (?v_54 (* 1 x13)) (?v_4 (* 1 x14)) (?v_6 (* 0 x19)) (?v_26 (* 1 x3)) (?v_12 (* 0 x4)) (?v_42 (* 1 x0)) (?v_10 (* 0 x12)) (?v_19 (* 0 x9)) (?v_13 (* 1 x7)) (?v_62 (* 2 x4)) (?v_34 (* 1 x16)) (?v_32 (* 0 x2)) (?v_17 (* 1 x5))) (let ((?v_24 (+ ?v_17 ?v_13)) (?v_27 (* 1 x6)) (?v_23 (* 1 x19))) (let ((?v_47 (+ ?v_19 ?v_23)) (?v_30 (* 0 x13)) (?v_28 (* 0 x14)) (?v_31 (* 0 x15)) (?v_43 (* 1 x15)) (?v_33 (* 0 x5)) (?v_39 (* 0 x7)) (?v_40 (* 0 x8)) (?v_52 (* 1 x10))) (let ((?v_49 (+ ?v_39 ?v_19)) (?v_44 (* 0 x18)) (?v_58 (* 1 x9)) (?v_57 (* 1 x4)) (?v_60 (* 1 x12)) (?v_55 (* 2 x19)) (?v_59 (* (- 2) x0)) (?v_0 (* (- 1) x12)) (?v_5 (* (- 1) x18)) (?v_22 (* (- 1) x2)) (?v_35 (* (- 1) x7)) (?v_9 (* (- 1) x8)) (?v_51 (* (- 1) x6)) (?v_14 (* (- 1) x0)) (?v_20 (* (- 1) x11)) (?v_45 (* (- 1) x16)) (?v_36 (* (- 1) x15)) (?v_29 (* (- 1) x1)) (?v_46 (* (- 1) x4)) (?v_38 (* (- 1) x3)) (?v_41 (* (- 1) x13)) (?v_48 (* (- 1) x14)) (?v_61 (* (- 1) x19)) (?v_53 (* (- 1) x9)) (?v_56 (* (- 1) x5))) (and (<= (+ ?v_59 (+ ?v_15 (+ ?v_16 (+ ?v_0 (+ ?v_2 (+ ?v_11 (+ ?v_7 (+ ?v_8 (+ ?v_37 (+ ?v_50 ?v_18)))))))))) 0) (<= (+ ?v_0 (+ ?v_25 (+ ?v_21 (+ ?v_1 (+ ?v_3 (+ ?v_54 (+ ?v_4 (+ ?v_5 (+ ?v_22 (+ ?v_35 (+ ?v_9 (+ ?v_6 (+ ?v_26 ?v_12))))))))))))) (- 1)) (<= (+ ?v_51 (+ ?v_42 (+ ?v_1 (+ ?v_10 (+ ?v_2 (+ ?v_3 (+ ?v_4 (+ ?v_5 (+ ?v_6 (+ ?v_7 (+ ?v_8 (+ ?v_19 (+ ?v_13 ?v_62))))))))))))) (- 1)) (<= (+ ?v_14 (+ ?v_20 (+ ?v_9 (+ ?v_10 (+ ?v_34 (+ ?v_11 (+ ?v_5 (+ ?v_6 (+ ?v_32 (+ ?v_8 (+ ?v_12 ?v_24))))))))))) 0) (<= (+ ?v_14 (+ ?v_15 (+ ?v_16 (+ ?v_45 (+ ?v_10 (+ ?v_5 (+ ?v_7 (+ ?v_8 (+ ?v_17 (+ ?v_27 (+ ?v_18 ?v_47))))))))))) 1) (<= (+ ?v_20 (+ ?v_21 (+ ?v_0 (+ ?v_30 (+ ?v_36 (+ ?v_2 (+ ?v_5 (+ ?v_22 (+ ?v_8 (+ ?v_12 (+ ?v_19 (+ ?v_23 ?v_24)))))))))))) 0) (<= (+ ?v_25 (+ (* (- 2) x10) (+ ?v_0 (+ ?v_28 (+ ?v_31 (+ ?v_5 (+ ?v_7 (+ ?v_26 (+ ?v_12 (+ ?v_17 (+ ?v_27 (+ ?v_18 (* 2 x9))))))))))))) 0) (<= (+ (* (- 2) x13) (+ ?v_29 (+ (* (- 1) x17) (+ ?v_22 (+ ?v_1 (+ ?v_10 (+ ?v_28 (+ ?v_43 (+ ?v_26 (+ ?v_46 (+ ?v_33 (+ ?v_39 ?v_40)))))))))))) (- 1)) (<= (+ ?v_29 (+ ?v_25 (+ ?v_30 (+ ?v_31 (+ ?v_32 (+ ?v_8 (+ ?v_33 (+ ?v_52 (+ ?v_4 (+ ?v_34 (+ ?v_35 (+ ?v_12 (+ ?v_18 ?v_19))))))))))))) 0) (<= (+ ?v_14 (+ ?v_29 (+ ?v_36 (+ ?v_38 (+ ?v_9 (+ ?v_1 (+ ?v_11 (+ (* 2 x16) (+ ?v_12 (+ ?v_33 (+ ?v_37 ?v_19))))))))))) (- 1)) (<= (+ ?v_14 (+ ?v_41 (+ ?v_15 (+ ?v_38 (+ ?v_1 (+ (* 1 x11) (+ ?v_10 (+ ?v_31 (+ ?v_2 (+ ?v_3 (+ ?v_33 (+ ?v_37 ?v_49)))))))))))) 0) (<= (+ ?v_0 (+ ?v_36 (+ ?v_22 (+ ?v_25 (+ (* 2 x1) (+ ?v_1 (+ ?v_16 (+ ?v_44 (+ ?v_40 (+ ?v_26 (+ ?v_17 (+ ?v_27 (* 2 x7))))))))))))) 0) (<= (+ (* (- 3) x11) (+ ?v_41 (+ ?v_42 (+ ?v_21 (+ ?v_1 (+ ?v_10 (+ ?v_43 (+ ?v_44 (+ ?v_32 (+ ?v_8 (+ ?v_27 (+ ?v_13 ?v_58)))))))))))) (- 1)) (<= (+ ?v_25 (+ (* 3 x1) (+ (* (- 1) x10) (+ ?v_0 (+ ?v_48 (+ ?v_36 (+ ?v_2 (+ ?v_11 (+ ?v_44 (+ (* 2 x3) (+ ?v_39 (+ ?v_40 ?v_57)))))))))))) 0) (<= (+ ?v_14 (+ ?v_45 (+ ?v_10 (+ ?v_4 (+ ?v_43 (+ (* 2 x10) (+ ?v_46 (+ ?v_44 (+ ?v_8 (+ ?v_39 ?v_47)))))))))) 0) (<= (+ ?v_16 (+ ?v_10 (+ ?v_30 (+ ?v_48 (+ ?v_43 (+ ?v_44 (+ ?v_61 (+ ?v_7 (+ ?v_26 (+ ?v_53 (+ ?v_12 (+ ?v_17 (+ ?v_37 (+ ?v_13 (* 2 x8))))))))))))))) (- 1)) (<= (+ ?v_14 (+ ?v_16 (+ ?v_30 (+ ?v_48 (+ ?v_3 (+ (* 3 x15) (+ ?v_6 (+ ?v_7 (+ ?v_26 (+ ?v_12 (+ ?v_27 ?v_49))))))))))) 1) (<= (+ (* (- 2) x1) (+ (* (- 2) x14) (+ ?v_14 (+ ?v_20 (+ ?v_0 (+ (* 2 x13) (+ ?v_36 (+ ?v_32 (+ ?v_34 (+ ?v_26 (+ ?v_12 (+ ?v_50 (+ ?v_17 ?v_18))))))))))))) 0) (<= (+ ?v_20 (+ ?v_56 (+ ?v_51 (+ ?v_1 (+ ?v_30 (+ ?v_3 (+ ?v_60 (+ ?v_39 (+ ?v_40 ?v_55))))))))) (- 1)) (<= (+ ?v_16 (+ ?v_0 (+ ?v_28 (+ ?v_52 (+ ?v_27 (+ (* 2 x15) (+ ?v_34 (+ ?v_39 (+ ?v_40 ?v_50))))))))) 1) (<= (+ ?v_15 (+ ?v_0 (+ ?v_31 (+ ?v_3 (+ ?v_37 (+ ?v_40 (+ ?v_53 (+ ?v_42 (+ ?v_54 (+ ?v_12 (+ ?v_50 ?v_55))))))))))) 0) (<= (+ (* 2 x11) (+ ?v_56 (+ ?v_9 (+ ?v_25 (+ ?v_10 (+ ?v_54 (+ ?v_28 (+ (* 2 x17) (+ ?v_32 (+ ?v_39 (+ ?v_50 (+ ?v_23 (+ ?v_57 ?v_58))))))))))))) 0) (<= (+ ?v_59 (+ ?v_29 (+ ?v_22 (+ ?v_37 (+ ?v_60 (+ ?v_34 (+ ?v_50 (+ ?v_23 (+ ?v_13 ?v_18))))))))) 1) (<= (+ (* (- 2) x16) (+ ?v_25 (+ ?v_28 (+ ?v_3 (+ ?v_50 (+ ?v_61 (+ ?v_32 (+ ?v_38 (+ ?v_35 (+ ?v_9 (+ ?v_12 ?v_58))))))))))) (- 1)) (<= (+ ?v_29 (+ ?v_20 (+ ?v_28 (+ ?v_31 (+ ?v_50 (+ ?v_61 (+ ?v_7 (+ ?v_8 (+ ?v_17 (+ ?v_13 (+ ?v_58 ?v_62))))))))))) 0)))))))
(check-sat)
(exit)
